SIZE = 12,
21,14,40,32,15,30,5,9,31,7,13,
13,8,8,4,7,35,14,17,12,11,
7,10,9,34,10,4,4,31,35,
3,6,20,53,15,2,30,29,
3,25,32,16,5,40,21,
10,30,15,8,9,9,
50,32,40,20,6,
6,30,12,20,
15,21,25,
50,27,
5,
NOTE = 